n_jobs = 2;
n_machines = 2;
n_ops_for = [1, 2]; % Job1 tiene 1 op, Job2 tiene 2
dur = array2d(1..2, 1..2, [
  5, 0,
  3, 4
]);
machine_for = array2d(1..2, 1..2, [
  1, 0,
  2, 1
]);
maint_start = [8, 6];
maint_end   = [12, 9];

